\* Problem: Unknown *\

Maximize
 obj: + xp_0_0 + xp_1_0 + xp_1_1 + xp_2_0 + xp_3_0 + xp_3_1 + xp_4_0
 + xp_5_0 + xp_6_0 + xp_7_0 + xp_8_0 + xp_9_0 + xp_9_1 + xp_10_0
 + xp_11_0 + xp_11_1 + xp_12_0 + xp_12_1 + xp_12_2 + xp_13_0 + xp_13_1
 + xp_14_0 + xp_14_1 + xp_15_0 + xp_16_0 + xp_17_0 + xp_17_1 + xp_18_0
 + xp_18_1 + xp_19_0 + xp_19_1 + xp_20_0 + xp_21_0 + xp_22_0 + xp_22_1
 + xp_23_0 + xp_24_0 + xp_24_1 + xp_25_0 + xp_26_0 + xp_27_0 + xp_28_0
 + xp_28_1 + xp_29_0 + xp_30_0 + xp_30_1 + xp_31_0 + xp_32_0 + xp_32_1
 + xp_32_2 + xp_33_0 + xp_34_0 + xp_34_1 + xp_35_0 + xp_36_0 + xp_37_0
 + xp_38_0 + xp_39_0 + xp_40_0 + xp_40_1 + xp_41_0 + xp_42_0 + xp_42_1
 + xp_43_0 + xp_44_0 + xp_45_0 + xp_46_0 + xp_46_1 + xp_47_0 + xp_48_0
 + xp_48_1 + xp_49_0 + xp_50_0 + xp_50_1 + xp_51_0 + xp_52_0 + xp_53_0
 + xp_53_1 + xp_54_0 + xp_55_0 + xp_56_0 + xp_56_1 + xp_57_0 + xp_57_1
 + xp_58_0 + xp_58_1 + xp_58_2 + xp_59_0 + xp_59_1 + xp_60_0 + xp_60_1
 + xp_61_0 + xp_61_1 + xp_62_0 + xp_63_0 + xp_64_0 + xp_65_0 + xp_66_0
 + xp_67_0 + xp_67_1 + xp_68_0 + xp_68_1 + xp_68_2 + xp_69_0 + xp_70_0
 + xp_71_0 + xp_72_0 + xp_73_0 + xp_74_0 + xp_75_0 + xp_76_0 + xp_77_0
 + xp_77_1 + xp_78_0 + xp_78_1 + xp_78_2 + xp_78_3 + xp_78_4 + xp_79_0
 + xp_79_1 + xp_79_2 + xp_80_0 + xp_80_1 + xp_81_0 + xp_81_1 + xp_81_2
 + xp_82_0 + xp_83_0 + xp_84_0 + xp_85_0 + xp_85_1 + xp_86_0 + xp_86_1
 + xp_87_0 + xp_88_0 + xp_89_0 + xp_89_1 + xp_90_0 + xp_90_1 + xp_90_2
 + xp_91_0 + xp_91_1 + xp_91_2 + xp_92_0 + xp_93_0 + xp_94_0 + xp_94_1
 + xp_95_0 + xp_95_1 + xp_96_0 + xp_97_0 + xp_98_0 + xp_98_1 + xp_99_0
 + xp_100_0 + xp_101_0 + xp_102_0 + xp_103_0 + xp_104_0 + xp_105_0
 + xp_106_0 + xp_107_0 + xp_108_0 + xp_108_1 + xp_108_2 + xp_109_0
 + xp_109_1 + xp_110_0 + xp_111_0 + xp_111_1 + xp_112_0 + xp_112_1
 + xp_112_2 + xp_113_0 + xp_114_0 + xp_115_0 + xp_115_1 + xp_116_0
 + xp_116_1 + xp_117_0 + xp_118_0 + xp_119_0 + xp_120_0 + xp_120_1
 + xp_120_2 + xp_121_0 + xp_122_0 + xp_123_0 + xp_124_0 + xp_124_1
 + xp_125_0 + xp_125_1 + xp_125_2 + xp_126_0 + xp_126_1 + xp_126_2
 + xp_126_3 + xp_127_0 + xp_127_1 + xp_128_0 + xp_128_1 + xp_128_2
 + xp_129_0 + xp_129_1 + xp_130_0 + xp_131_0 + xp_131_1 + xp_131_2

Subject To
 r_1: + xp_128_2 + xp_128_1 + xp_122_0 + xp_121_0 + xp_108_1 + xp_107_0
 + xp_78_2 + xp_67_1 + xp_57_1 + xp_46_1 + xp_40_1 + xp_25_0 + xp_22_1
 + xp_18_0 + xp_16_0 + xp_13_1 + xp_4_0 <= 39820.1058201058
 r_2: + xp_131_2 + xp_131_1 + xp_127_1 + xp_126_1 + xp_120_1 + xp_120_0
 + xp_94_1 + xp_93_0 + xp_90_2 + xp_89_1 + xp_85_1 + xp_85_0 + xp_77_1
 + xp_75_0 + xp_71_0 + xp_66_0 + xp_65_0 + xp_61_1 + xp_55_0 + xp_52_0
 + xp_48_1 + xp_48_0 + xp_42_1 + xp_32_2 + xp_32_0 + xp_28_1 + xp_28_0
 + xp_24_0 + xp_19_1 + xp_19_0 + xp_12_2 + xp_12_1 + xp_1_1
 <= 35117.6705225369
 r_3: + xp_126_3 + xp_114_0 + xp_95_0 + xp_91_1 + xp_79_1 + xp_76_0
 + xp_34_0 <= 38762.5113739763
 r_4: + xp_117_0 + xp_95_1 + xp_91_2 + xp_91_0 + xp_84_0 + xp_79_2
 + xp_79_0 + xp_78_3 + xp_46_1 + xp_46_0 + xp_43_0 + xp_40_1 + xp_40_0
 + xp_34_1 <= 36656.4228641672
 r_5: + xp_130_0 + xp_99_0 + xp_86_0 + xp_78_3 + xp_7_0 + xp_2_0
 <= 38762.5113739763
 r_6: + xp_126_3 + xp_126_2 + xp_119_0 + xp_114_0 + xp_95_0 + xp_91_1
 + xp_83_0 + xp_81_0 + xp_79_1 + xp_70_0 + xp_68_1 + xp_58_1 + xp_53_0
 + xp_48_1 + xp_45_0 + xp_34_0 + xp_32_2 + xp_32_1 + xp_30_1 + xp_18_0
 <= 38281.3816343724
 r_7: + xp_125_2 + xp_112_2 + xp_112_1 + xp_111_1 + xp_104_0 + xp_88_0
 + xp_82_0 + xp_81_2 + xp_81_1 + xp_78_1 + xp_59_1 + xp_56_1 + xp_53_1
 + xp_50_1 + xp_44_0 + xp_27_0 + xp_18_1 + xp_3_1 <= 36656.4228641672
 r_8: + xp_131_2 + xp_131_1 + xp_127_1 + xp_126_1 + xp_120_1 + xp_120_0
 + xp_118_0 + xp_103_0 + xp_94_1 + xp_90_2 + xp_89_1 + xp_77_1 + xp_71_0
 + xp_61_1 + xp_55_0 + xp_42_1 + xp_32_2 + xp_32_0 + xp_24_0 + xp_12_2
 + xp_12_1 + xp_1_1 <= 39820.1058201058
 r_9: + xp_131_0 + xp_127_0 + xp_122_0 + xp_120_2 + xp_108_1 + xp_78_2
 + xp_77_0 + xp_67_1 + xp_57_1 + xp_46_1 + xp_42_0 + xp_33_0 + xp_32_1
 + xp_24_1 <= 39648.3971044467
 r_10: + xp_125_2 + xp_124_1 + xp_112_2 + xp_112_1 + xp_111_1 + xp_106_0
 + xp_99_0 + xp_98_0 + xp_94_1 + xp_88_0 + xp_86_0 + xp_85_0 + xp_78_3
 + xp_78_1 + xp_59_1 + xp_56_1 + xp_50_1 + xp_26_0 + xp_24_0 + xp_8_0
 + xp_7_0 + xp_3_1 + xp_2_0 <= 38281.3816343724
 r_11: + xp_119_0 + xp_112_0 + xp_111_0 + xp_95_0 + xp_91_1 + xp_81_0
 + xp_79_1 + xp_78_4 + xp_78_2 + xp_78_0 + xp_59_0 + xp_53_0 + xp_50_0
 + xp_49_0 + xp_45_0 + xp_34_0 + xp_18_0 + xp_4_0 + xp_3_0
 <= 36277.3722627737
 r_12: + xp_129_0 + xp_128_2 + xp_128_0 + xp_123_0 + xp_117_0 + xp_112_1
 + xp_111_1 + xp_108_2 + xp_101_0 + xp_95_1 + xp_91_2 + xp_82_0
 + xp_81_2 + xp_80_1 + xp_79_2 + xp_78_3 + xp_78_1 + xp_78_0 + xp_73_0
 + xp_60_0 + xp_50_1 + xp_46_0 + xp_44_0 + xp_40_0 + xp_18_1 + xp_17_1
 + xp_15_0 + xp_14_1 + xp_13_0 + xp_9_0 <= 36088.8175494917
 r_13: + xp_129_1 + xp_128_1 + xp_120_2 + xp_120_1 + xp_112_2 + xp_109_1
 + xp_100_0 + xp_91_0 + xp_90_0 + xp_81_1 + xp_80_0 + xp_79_0 + xp_68_0
 + xp_63_0 + xp_60_1 + xp_59_1 + xp_58_2 + xp_53_1 + xp_46_1 + xp_40_1
 + xp_34_1 + xp_31_0 + xp_30_0 + xp_17_0 + xp_13_1 + xp_9_1
 <= 36277.3722627737
 r_14: + xp_131_2 + xp_131_1 + xp_131_0 + xp_126_3 + xp_126_2 + xp_125_1
 + xp_125_0 + xp_124_0 + xp_115_1 + xp_115_0 + xp_98_1 + xp_94_0
 + xp_86_1 + xp_85_1 + xp_77_1 + xp_77_0 + xp_68_1 + xp_65_0 + xp_58_1
 + xp_56_0 + xp_51_0 + xp_48_1 + xp_41_0 + xp_38_0 + xp_35_0 + xp_32_2
 + xp_32_1 + xp_30_1 + xp_24_1 + xp_20_0 + xp_19_1 + xp_19_0 + xp_12_2
 + xp_12_1 + xp_12_0 + xp_0_0 <= 36656.4228641672
 r_15: + xp_131_2 + xp_131_0 + xp_126_3 + xp_126_2 + xp_125_0 + xp_124_0
 + xp_120_2 + xp_120_1 + xp_116_0 + xp_115_0 + xp_109_1 + xp_98_1
 + xp_94_0 + xp_90_0 + xp_89_1 + xp_89_0 + xp_86_1 + xp_85_1 + xp_77_1
 + xp_77_0 + xp_68_1 + xp_68_0 + xp_65_0 + xp_58_2 + xp_58_1 + xp_51_0
 + xp_48_1 + xp_42_1 + xp_42_0 + xp_38_0 + xp_36_0 + xp_32_2 + xp_32_1
 + xp_28_1 + xp_24_1 + xp_19_1 + xp_12_2 + xp_12_0 + xp_11_0 + xp_0_0
 <= 36088.8175494917
 r_16: + xp_128_0 + xp_123_0 + xp_108_2 + xp_108_0 + xp_78_4 + xp_78_3
 + xp_78_1 + xp_78_0 + xp_73_0 + xp_67_0 + xp_57_0 + xp_46_0 + xp_44_0
 + xp_40_0 + xp_22_0 + xp_18_1 + xp_13_0 + xp_6_0 <= 39648.3971044467
 r_17: + xp_129_0 + xp_128_2 + xp_126_0 + xp_124_1 + xp_112_1 + xp_111_1
 + xp_109_0 + xp_97_0 + xp_95_1 + xp_91_2 + xp_90_1 + xp_81_2 + xp_80_1
 + xp_79_2 + xp_68_2 + xp_62_0 + xp_61_0 + xp_60_0 + xp_47_0 + xp_22_1
 + xp_17_1 + xp_9_0 + xp_1_0 <= 35117.6705225369
 r_18: + xp_126_1 + xp_126_0 + xp_125_2 + xp_124_1 + xp_106_0 + xp_99_0
 + xp_98_0 + xp_94_1 + xp_92_0 + xp_86_0 + xp_85_0 + xp_68_2 + xp_68_0
 + xp_58_2 + xp_58_0 + xp_56_1 + xp_48_0 + xp_32_0 + xp_30_0 + xp_26_0
 + xp_24_0 + xp_5_0 + xp_2_0 <= 36277.3722627737
 r_19: + xp_131_1 + xp_125_1 + xp_116_1 + xp_115_1 + xp_110_0 + xp_108_2
 + xp_78_0 + xp_56_0 + xp_28_0 + xp_19_0 + xp_14_1 + xp_12_1 + xp_11_1
 + xp_3_0 <= 36277.3722627737
 r_20: + xp_129_1 + xp_128_1 + xp_119_0 + xp_112_2 + xp_112_0 + xp_111_0
 + xp_108_1 + xp_108_0 + xp_107_0 + xp_95_0 + xp_91_1 + xp_91_0
 + xp_81_1 + xp_81_0 + xp_80_0 + xp_79_1 + xp_79_0 + xp_78_4 + xp_78_2
 + xp_69_0 + xp_64_0 + xp_63_0 + xp_60_1 + xp_50_0 + xp_49_0 + xp_46_1
 + xp_45_0 + xp_40_1 + xp_18_0 + xp_17_0 + xp_14_0 + xp_13_1 + xp_10_0
 + xp_9_1 + xp_4_0 <= 35117.6705225369
 r_21: + xp_126_3 + xp_113_0 + xp_86_1 + xp_77_1 + xp_77_0 + xp_65_0
 + xp_38_0 + xp_20_0 + xp_0_0 <= 36656.4228641672
 r_22: + xp_126_2 + xp_124_0 + xp_105_0 + xp_98_1 + xp_94_0 + xp_85_1
 + xp_83_0 + xp_68_1 + xp_58_1 + xp_48_1 + xp_41_0 + xp_32_2 + xp_32_1
 + xp_30_1 + xp_24_1 <= 36656.4228641672
 r_23: + xp_128_2 + xp_128_1 + xp_128_0 + xp_117_0 + xp_112_2 + xp_112_1
 + xp_111_1 + xp_104_0 + xp_100_0 + xp_95_1 + xp_91_2 + xp_91_0
 + xp_84_0 + xp_82_0 + xp_81_2 + xp_81_1 + xp_80_1 + xp_80_0 + xp_79_2
 + xp_79_0 + xp_78_3 + xp_78_1 + xp_73_0 + xp_60_1 + xp_60_0 + xp_59_1
 + xp_53_1 + xp_50_1 + xp_46_1 + xp_46_0 + xp_44_0 + xp_40_1 + xp_40_0
 + xp_34_1 + xp_21_0 + xp_18_1 + xp_15_0 + xp_9_1 + xp_9_0 + xp_3_1
 <= 36656.4228641672
 r_24: + xp_128_0 + xp_126_1 + xp_103_0 + xp_94_1 + xp_90_2 + xp_89_1
 + xp_61_1 + xp_40_0 + xp_39_0 + xp_22_0 + xp_18_1 + xp_13_0 + xp_12_2
 + xp_12_1 + xp_1_1 <= 39648.3971044467
 r_25: + xp_131_0 + xp_127_0 + xp_126_3 + xp_126_2 + xp_126_0 + xp_120_2
 + xp_94_0 + xp_90_1 + xp_90_0 + xp_89_0 + xp_77_0 + xp_74_0 + xp_61_0
 + xp_42_0 + xp_38_0 + xp_32_1 + xp_24_1 + xp_12_0 + xp_1_0
 <= 39648.3971044467
 r_26: + xp_128_2 + xp_128_1 + xp_121_0 + xp_112_2 + xp_112_1 + xp_112_0
 + xp_108_1 + xp_107_0 + xp_81_2 + xp_81_1 + xp_81_0 + xp_79_2 + xp_79_1
 + xp_79_0 + xp_78_2 + xp_67_1 + xp_64_0 + xp_60_1 + xp_60_0 + xp_57_1
 + xp_47_0 + xp_46_1 + xp_40_1 + xp_37_0 + xp_29_0 + xp_25_0 + xp_22_1
 + xp_18_0 + xp_17_1 + xp_17_0 + xp_13_1 + xp_4_0 <= 35117.6705225369
 r_27: + xp_131_2 + xp_127_1 + xp_125_0 + xp_120_1 + xp_116_0 + xp_115_0
 + xp_108_0 + xp_98_1 + xp_89_1 + xp_86_1 + xp_85_1 + xp_78_4 + xp_77_1
 + xp_72_0 + xp_67_0 + xp_65_0 + xp_58_2 + xp_58_1 + xp_57_0 + xp_52_0
 + xp_50_0 + xp_48_1 + xp_42_1 + xp_32_2 + xp_28_1 + xp_23_0 + xp_19_1
 + xp_14_0 + xp_12_2 + xp_11_0 <= 35117.6705225369
 r_28: + xp_131_1 + xp_126_1 + xp_126_0 + xp_125_2 + xp_125_1 + xp_124_1
 + xp_120_0 + xp_116_1 + xp_115_1 + xp_109_0 + xp_99_0 + xp_98_0
 + xp_96_0 + xp_94_1 + xp_92_0 + xp_90_2 + xp_90_1 + xp_86_0 + xp_85_0
 + xp_75_0 + xp_68_2 + xp_58_0 + xp_54_0 + xp_48_0 + xp_32_0 + xp_28_0
 + xp_26_0 + xp_24_0 + xp_19_0 + xp_12_1 + xp_11_1 <= 35117.6705225369
 r_29: + xp_129_1 + xp_129_0 + xp_95_1 + xp_95_0 + xp_93_0 + xp_87_0
 + xp_71_0 + xp_62_0 + xp_49_0 + xp_45_0 + xp_10_0 + xp_9_1 + xp_9_0
 + xp_1_1 + xp_1_0 <= 35117.6705225369
 r_30: + xp_125_2 + xp_125_1 + xp_125_0 + xp_121_0 + xp_102_0 + xp_99_0
 + xp_96_0 + xp_92_0 + xp_57_1 + xp_57_0 + xp_37_0 + xp_26_0 + xp_23_0
 + xp_11_1 + xp_11_0 <= 35117.6705225369

Bounds
 0 <= xp_0_0 <= 234.734912767083
 0 <= xp_1_0 <= 103.785428310426
 0 <= xp_1_1 <= 77.8390712328196
 0 <= xp_2_0 <= 114.416877871106
 0 <= xp_3_0 <= 155.453336483739
 0 <= xp_3_1 <= 25.9088894139566
 0 <= xp_4_0 <= 784.788315896429
 0 <= xp_5_0 <= 1077.74797797557
 0 <= xp_6_0 <= 1782.60840039069
 0 <= xp_7_0 <= 634.964495876098
 0 <= xp_8_0 <= 1501.91003124101
 0 <= xp_9_0 <= 46.1414277849422
 0 <= xp_9_1 <= 61.5219037132562
 0 <= xp_10_0 <= 54.5529182743612
 0 <= xp_11_0 <= 23.6046280994832
 0 <= xp_11_1 <= 17.7034710746124
 0 <= xp_12_0 <= 1175.09833505411
 0 <= xp_12_1 <= 587.549167527057
 0 <= xp_12_2 <= 293.774583763528
 0 <= xp_13_0 <= 214.858317200772
 0 <= xp_13_1 <= 35.809719533462
 0 <= xp_14_0 <= 93.7721951999708
 0 <= xp_14_1 <= 125.029593599961
 0 <= xp_15_0 <= 504.483357215066
 0 <= xp_16_0 <= 2627.26067588387
 0 <= xp_17_0 <= 253.300140105645
 0 <= xp_17_1 <= 42.2166900176075
 0 <= xp_18_0 <= 204.086363901405
 0 <= xp_18_1 <= 153.064772926054
 0 <= xp_19_0 <= 601.805613545872
 0 <= xp_19_1 <= 451.354210159404
 0 <= xp_20_0 <= 127.596128559984
 0 <= xp_21_0 <= 273.092433428743
 0 <= xp_22_0 <= 875.572464920315
 0 <= xp_22_1 <= 350.228985968126
 0 <= xp_23_0 <= 51.7334765847007
 0 <= xp_24_0 <= 193.670353406712
 0 <= xp_24_1 <= 145.252765055034
 0 <= xp_25_0 <= 575.887357216003
 0 <= xp_26_0 <= 15.2774398532766
 0 <= xp_27_0 <= 336.234813594861
 0 <= xp_28_0 <= 284.660574580672
 0 <= xp_28_1 <= 379.54743277423
 0 <= xp_29_0 <= 2435.86648304389
 0 <= xp_30_0 <= 156.408761906814
 0 <= xp_30_1 <= 26.068126984469
 0 <= xp_31_0 <= 189.689414143902
 0 <= xp_32_0 <= 1600.1970799108
 0 <= xp_32_1 <= 320.03941598216
 0 <= xp_32_2 <= 320.03941598216
 0 <= xp_33_0 <= 8020.78705979301
 0 <= xp_34_0 <= 217.89319795642
 0 <= xp_34_1 <= 290.524263941893
 0 <= xp_35_0 <= 259.78204591709
 0 <= xp_36_0 <= 317.416679526662
 0 <= xp_37_0 <= 363.117862263717
 0 <= xp_38_0 <= 333.218666671038
 0 <= xp_39_0 <= 1565.90480075516
 0 <= xp_40_0 <= 603.650895980633
 0 <= xp_40_1 <= 241.460358392253
 0 <= xp_41_0 <= 79.5344830129809
 0 <= xp_42_0 <= 258.302073202916
 0 <= xp_42_1 <= 193.726554902187
 0 <= xp_43_0 <= 489.730464652889
 0 <= xp_44_0 <= 456.421711668063
 0 <= xp_45_0 <= 42.3571937562949
 0 <= xp_46_0 <= 1369.68664622025
 0 <= xp_46_1 <= 228.281107703375
 0 <= xp_47_0 <= 874.813744731402
 0 <= xp_48_0 <= 2479.55377885976
 0 <= xp_48_1 <= 413.258963143293
 0 <= xp_49_0 <= 87.6649660250251
 0 <= xp_50_0 <= 557.612504270728
 0 <= xp_50_1 <= 223.045001708291
 0 <= xp_51_0 <= 706.23735905426
 0 <= xp_52_0 <= 659.290376500843
 0 <= xp_53_0 <= 162.02891145431
 0 <= xp_53_1 <= 27.0048185757183
 0 <= xp_54_0 <= 3676.22412126035
 0 <= xp_55_0 <= 1179.64128927167
 0 <= xp_56_0 <= 81.7169744205919
 0 <= xp_56_1 <= 13.6194957367653
 0 <= xp_57_0 <= 175.798277845675
 0 <= xp_57_1 <= 29.2997129742792
 0 <= xp_58_0 <= 1939.40120584992
 0 <= xp_58_1 <= 1292.93413723328
 0 <= xp_58_2 <= 1292.93413723328
 0 <= xp_59_0 <= 9081.09384033952
 0 <= xp_59_1 <= 1513.51564005659
 0 <= xp_60_0 <= 192.771129479113
 0 <= xp_60_1 <= 481.927823697782
 0 <= xp_61_0 <= 1376.44955950907
 0 <= xp_61_1 <= 1032.3371696318
 0 <= xp_62_0 <= 130.612275483807
 0 <= xp_63_0 <= 131.202391186294
 0 <= xp_64_0 <= 989.755169893608
 0 <= xp_65_0 <= 519.957502302505
 0 <= xp_66_0 <= 1672.19119561422
 0 <= xp_67_0 <= 345.189585207204
 0 <= xp_67_1 <= 57.5315975345341
 0 <= xp_68_0 <= 419.000882597652
 0 <= xp_68_1 <= 838.001765195304
 0 <= xp_68_2 <= 209.500441298826
 0 <= xp_69_0 <= 1710.61428468727
 0 <= xp_70_0 <= 628.73549679429
 0 <= xp_71_0 <= 70.5516106528998
 0 <= xp_72_0 <= 596.279133157501
 0 <= xp_73_0 <= 918.744580360996
 0 <= xp_74_0 <= 948.840481187837
 0 <= xp_75_0 <= 1755.85648854461
 0 <= xp_76_0 <= 1714.15497890219
 0 <= xp_77_0 <= 488.166189695503
 0 <= xp_77_1 <= 81.3610316159171
 0 <= xp_78_0 <= 3980.64888841638
 0 <= xp_78_1 <= 7961.29777683276
 0 <= xp_78_2 <= 7961.29777683276
 0 <= xp_78_3 <= 3980.64888841638
 0 <= xp_78_4 <= 3980.64888841638
 0 <= xp_79_0 <= 303.075931264634
 0 <= xp_79_1 <= 303.075931264634
 0 <= xp_79_2 <= 454.613896896952
 0 <= xp_80_0 <= 160.361600421886
 0 <= xp_80_1 <= 64.1446401687544
 0 <= xp_81_0 <= 185.558604226493
 0 <= xp_81_1 <= 37.1117208452986
 0 <= xp_81_2 <= 37.1117208452986
 0 <= xp_82_0 <= 218.867357211319
 0 <= xp_83_0 <= 501.729483936793
 0 <= xp_84_0 <= 886.288216724207
 0 <= xp_85_0 <= 290.702235344231
 0 <= xp_85_1 <= 116.280894137692
 0 <= xp_86_0 <= 146.348694216796
 0 <= xp_86_1 <= 24.3914490361326
 0 <= xp_87_0 <= 140.709810837475
 0 <= xp_88_0 <= 423.506369151561
 0 <= xp_89_0 <= 1895.9012483523
 0 <= xp_89_1 <= 315.98354139205
 0 <= xp_90_0 <= 12352.0770784777
 0 <= xp_90_1 <= 3088.01926961942
 0 <= xp_90_2 <= 6176.03853923883
 0 <= xp_91_0 <= 774.437873813124
 0 <= xp_91_1 <= 774.437873813124
 0 <= xp_91_2 <= 1161.65681071969
 0 <= xp_92_0 <= 66.6175059696526
 0 <= xp_93_0 <= 129.956591369933
 0 <= xp_94_0 <= 202.437786700806
 0 <= xp_94_1 <= 33.739631116801
 0 <= xp_95_0 <= 52.3797937826627
 0 <= xp_95_1 <= 8.72996563044379
 0 <= xp_96_0 <= 115.006993573593
 0 <= xp_97_0 <= 525.596385681826
 0 <= xp_98_0 <= 101.818375968803
 0 <= xp_98_1 <= 40.727350387521
 0 <= xp_99_0 <= 16.3265344354759
 0 <= xp_100_0 <= 501.532778702631
 0 <= xp_101_0 <= 249.159963272323
 0 <= xp_102_0 <= 74.7479889816968
 0 <= xp_103_0 <= 1435.68593573968
 0 <= xp_104_0 <= 131.530233243231
 0 <= xp_105_0 <= 1445.78347109335
 0 <= xp_106_0 <= 41.3080991740956
 0 <= xp_107_0 <= 448.487933890181
 0 <= xp_108_0 <= 362.864955534079
 0 <= xp_108_1 <= 241.909970356053
 0 <= xp_108_2 <= 241.909970356053
 0 <= xp_109_0 <= 550.849590981908
 0 <= xp_109_1 <= 413.137193236431
 0 <= xp_110_0 <= 132.84160147098
 0 <= xp_111_0 <= 2083.38943725677
 0 <= xp_111_1 <= 833.355774902707
 0 <= xp_112_0 <= 2667.58524888715
 0 <= xp_112_1 <= 1333.79262444358
 0 <= xp_112_2 <= 666.896312221788
 0 <= xp_113_0 <= 424.227621676823
 0 <= xp_114_0 <= 2391.14882647765
 0 <= xp_115_0 <= 157.364187329888
 0 <= xp_115_1 <= 62.9456749319552
 0 <= xp_116_0 <= 113.761193757232
 0 <= xp_116_1 <= 45.5044775028926
 0 <= xp_117_0 <= 1937.87439855618
 0 <= xp_118_0 <= 3145.97237837001
 0 <= xp_119_0 <= 62.6178328750179
 0 <= xp_120_0 <= 1236.35796512182
 0 <= xp_120_1 <= 309.089491280455
 0 <= xp_120_2 <= 618.17898256091
 0 <= xp_121_0 <= 75.3381046841839
 0 <= xp_122_0 <= 2268.47032877172
 0 <= xp_123_0 <= 512.417134992948
 0 <= xp_124_0 <= 117.685931524566
 0 <= xp_124_1 <= 19.614321920761
 0 <= xp_125_0 <= 19.4363505184237
 0 <= xp_125_1 <= 3.88727010368473
 0 <= xp_125_2 <= 3.88727010368473
 0 <= xp_126_0 <= 3615.54523997921
 0 <= xp_126_1 <= 10846.6357199376
 0 <= xp_126_2 <= 7231.09047995843
 0 <= xp_126_3 <= 3615.54523997921
 0 <= xp_127_0 <= 328.703813201216
 0 <= xp_127_1 <= 246.527859900912
 0 <= xp_128_0 <= 289.297197957357
 0 <= xp_128_1 <= 57.8594395914713
 0 <= xp_128_2 <= 57.8594395914713
 0 <= xp_129_0 <= 20.9350570644226
 0 <= xp_129_1 <= 27.9134094192301
 0 <= xp_130_0 <= 402.524477507576
 0 <= xp_131_0 <= 437.509908440739
 0 <= xp_131_1 <= 218.754954220369
 0 <= xp_131_2 <= 109.377477110185

End
